
Gurobi 12.0.0 (mac64[arm]) logging started Mon Apr 14 13:56:42 2025

Set parameter LogFile to value "gurobi_output_1p2.txt"
Gurobi Optimizer version 12.0.0 build v12.0.0rc1 (mac64[arm] - Darwin 24.3.0 24D81)

CPU model: Apple M4 Pro
Thread count: 12 physical cores, 12 logical processors, using up to 8 threads

Non-default parameters:
TimeLimit  600
Threads  8

Optimize a model with 2472685 rows, 1187000 columns and 8748011 nonzeros
Model fingerprint: 0x21479b9f
Variable types: 0 continuous, 1187000 integer (1186695 binary)
Coefficient statistics:
  Matrix range     [1e+00, 4e+02]
  Objective range  [2e+00, 2e+02]
  Bounds range     [1e+00, 1e+00]
  RHS range        [1e+00, 4e+02]
Presolve removed 2346825 rows and 1045249 columns
Presolve time: 0.67s
Presolved: 125860 rows, 141751 columns, 1012570 nonzeros
Variable types: 0 continuous, 141751 integer (141645 binary)
Performing another presolve...
Presolve removed 8115 rows and 224 columns
Presolve time: 0.98s
Deterministic concurrent LP optimizer: primal simplex, dual simplex, and barrier
Showing barrier log only...

Root barrier log...

Ordering time: 0.28s

Barrier statistics:
 Dense cols : 100
 AA' NZ     : 1.464e+06
 Factor NZ  : 4.105e+06 (roughly 120 MB of memory)
 Factor Ops : 1.422e+09 (less than 1 second per iteration)
 Threads    : 5

                  Objective                Residual
Iter       Primal          Dual         Primal    Dual     Compl     Time
   0   1.80243997e+08 -8.02281413e+08  9.66e+03 0.00e+00  7.91e+04     4s
   1   1.48194714e+08 -8.46844863e+08  7.90e+03 2.06e+02  6.08e+04     4s
   2   1.14194892e+08 -8.50811304e+08  6.08e+03 1.39e+02  4.62e+04     4s
   3   2.99160395e+07 -7.79106768e+08  1.57e+03 3.04e-01  1.29e+04     4s
   4   6.93372931e+06 -4.31506628e+08  3.49e+02 8.07e-02  3.32e+03     4s
   5   2.95009779e+06 -1.24821758e+08  1.46e+02 1.46e-02  1.07e+03     4s
   6   1.12493359e+06 -4.53903512e+07  5.22e+01 8.39e-03  3.54e+02     4s
   7   2.92574820e+05 -1.88847069e+07  9.79e+00 2.51e-03  8.96e+01     4s
   8   1.76732367e+05 -7.49445888e+06  3.88e+00 7.90e-04  3.21e+01     4s
   9   1.35938343e+05 -3.46402830e+06  1.89e+00 3.44e-04  1.45e+01     4s
  10   1.07408651e+05 -1.60427333e+06  8.25e-01 1.89e-04  6.41e+00     4s
  11   8.07439267e+04 -4.47887361e+05  4.32e-02 1.02e-04  1.69e+00     4s
  12   6.60040783e+04 -2.21306470e+05  1.43e-03 7.83e-05  9.02e-01     4s
  13   5.62499890e+04 -1.32230266e+05  5.88e-04 6.94e-05  5.92e-01     4s
  14   5.29182933e+04 -8.67741128e+04  4.78e-04 1.00e-04  4.39e-01     4s
  15   4.01983391e+04 -5.48154609e+04  1.87e-04 8.27e-05  2.98e-01     4s
  16   3.21127501e+04 -3.04588235e+04  1.25e-04 8.24e-05  1.96e-01     5s
  17   2.88116650e+04 -2.05518343e+04  1.08e-04 6.08e-05  1.55e-01     5s
  18   2.57468107e+04 -1.68699551e+04  9.31e-05 5.18e-05  1.34e-01     5s
  19   2.12143867e+04 -1.13294058e+04  7.26e-05 3.76e-05  1.02e-01     5s
  20   1.75143271e+04 -6.54292924e+03  5.68e-05 2.51e-05  7.55e-02     5s
  21   1.45592444e+04 -3.11413548e+03  4.36e-05 1.89e-05  5.55e-02     5s
  22   1.28693978e+04 -1.50969399e+03  3.51e-05 1.71e-05  4.51e-02     5s
  23   1.14232587e+04  8.99909376e+02  2.83e-05 1.34e-05  3.30e-02     5s
  24   1.03792699e+04  2.01777267e+03  2.37e-05 1.08e-05  2.63e-02     5s
  25   9.69099973e+03  2.73381314e+03  2.08e-05 1.84e-05  2.18e-02     5s
  26   8.61083826e+03  3.10873252e+03  1.63e-05 1.88e-05  1.73e-02     5s
  27   8.09788093e+03  3.62869888e+03  1.38e-05 2.28e-05  1.40e-02     5s
  28   7.58908701e+03  3.85904903e+03  1.16e-05 1.81e-05  1.17e-02     5s
  29   6.94005892e+03  4.03428575e+03  8.74e-06 1.51e-05  9.12e-03     6s
  30   6.56693022e+03  4.33820577e+03  7.15e-06 1.03e-05  7.00e-03     6s
  31   6.22969906e+03  4.46406192e+03  5.67e-06 8.17e-06  5.54e-03     6s
  32   5.96805948e+03  4.59291710e+03  4.68e-06 5.77e-06  4.32e-03     6s
  33   5.70089735e+03  4.65690574e+03  3.54e-06 4.44e-06  3.28e-03     6s
  34   5.48632922e+03  4.72756973e+03  2.57e-06 3.03e-06  2.38e-03     6s
  35   5.42280285e+03  4.78909726e+03  2.29e-06 1.95e-06  1.99e-03     6s
  36   5.25036707e+03  4.81938701e+03  1.56e-06 1.34e-06  1.35e-03     6s
  37   5.15786091e+03  4.84998686e+03  1.14e-06 1.34e-06  9.67e-04     6s
  38   5.10114530e+03  4.86129581e+03  8.94e-07 1.04e-06  7.53e-04     6s
  39   5.03562426e+03  4.87120192e+03  6.22e-07 1.14e-06  5.16e-04     7s
  40   5.00765702e+03  4.88475027e+03  4.97e-07 1.34e-06  3.86e-04     7s
  41   5.00765675e+03  4.88473221e+03  4.97e-07 1.23e-03  3.86e-04     7s
  42   4.98956386e+03  4.88902405e+03  4.10e-07 9.59e-04  3.16e-04     7s
  43   4.98956386e+03  4.88902405e+03  4.10e-07 9.47e-04  3.16e-04     7s
  44   1.80075116e+09 -2.26582173e+09  9.66e+04 0.00e+00  2.13e+06     7s
  45   1.37568628e+09 -3.20887774e+09  7.34e+04 3.29e+02  1.76e+06     7s
  46   1.33145396e+08 -3.45588284e+09  7.05e+03 4.04e+00  1.80e+05     7s
  47   3.84561369e+07 -3.01250009e+09  2.01e+03 9.20e-01  5.48e+04     7s
  48   9.41380612e+06 -1.74122314e+09  4.73e+02 1.01e-01  1.43e+04     7s
  49   5.39869357e+06 -1.08479497e+09  2.69e+02 5.02e-02  7.90e+03     7s
  50   2.06779224e+06 -7.36952017e+08  9.91e+01 2.86e-02  3.86e+03     7s
  51   8.33571486e+05 -4.41220575e+08  3.67e+01 1.59e-02  1.90e+03     7s
  52   2.60937552e+05 -9.28170986e+07  7.87e+00 3.92e-03  3.67e+02     7s
  53   1.58649885e+05 -2.95966656e+07  2.76e+00 1.16e-03  1.11e+02     8s
  54   1.28172592e+05 -1.25818678e+07  1.44e+00 6.79e-04  4.69e+01     8s
  55   1.09539467e+05 -2.71609743e+06  6.55e-01 2.56e-04  1.05e+01     8s
  56   8.91601751e+04 -1.09710247e+06  6.82e-02 1.62e-04  3.81e+00     8s
  57   7.66889019e+04 -4.76854511e+05  9.77e-03 5.55e-05  1.74e+00     8s
  58   6.44517402e+04 -3.46015341e+05  1.45e-03 3.00e-05  1.29e+00     8s
  59   5.67296272e+04 -2.30657211e+05  6.50e-04 3.30e-05  9.02e-01     8s
  60   5.09795692e+04 -1.36427492e+05  4.04e-04 7.21e-05  5.88e-01     8s
  61   4.73639127e+04 -1.18144719e+05  3.21e-04 6.58e-02  5.20e-01     8s
  62   4.07471782e+04 -8.03529250e+04  2.01e-04 6.10e-02  3.80e-01     8s
  63   3.34485873e+04 -5.96341289e+04  1.16e-04 4.75e-02  2.92e-01     8s
  64   2.98951090e+04 -4.27917109e+04  9.71e-05 3.57e-02  2.28e-01     8s
  65   2.59536142e+04 -3.34208054e+04  7.91e-05 2.88e-02  1.86e-01     8s
  66   2.22134696e+04 -2.42436968e+04  6.42e-05 2.19e-02  1.46e-01     8s
  67   1.82178372e+04 -1.66647973e+04  4.95e-05 1.62e-02  1.10e-01     8s
  68   1.61506656e+04 -1.04471332e+04  4.06e-05 1.17e-02  8.35e-02     8s
  69   1.36408985e+04 -7.11612963e+03  3.15e-05 8.97e-03  6.52e-02     8s
  70   1.21711908e+04 -3.58600724e+03  2.57e-05 6.43e-03  4.95e-02     8s
  71   1.07337548e+04 -9.46743071e+02  2.01e-05 4.47e-03  3.67e-02     8s
  72   1.00292086e+04  2.10880849e+02  1.71e-05 3.64e-03  3.08e-02     8s
  73   8.75689952e+03  1.62873617e+03  1.27e-05 2.57e-03  2.24e-02     8s
  74   8.08963438e+03  2.34521794e+03  1.03e-05 2.04e-03  1.80e-02     9s
  75   7.51757496e+03  3.03255338e+03  8.41e-06 1.50e-03  1.41e-02     9s
  76   6.91494218e+03  3.47041543e+03  6.40e-06 1.15e-03  1.08e-02     9s
  77   6.50516099e+03  3.98240644e+03  5.08e-06 8.89e-04  7.92e-03     9s
  78   6.06408887e+03  4.21226084e+03  3.64e-06 7.15e-04  5.81e-03     9s
  79   5.83099846e+03  4.38367712e+03  2.93e-06 5.61e-04  4.54e-03     9s
  80   5.56226376e+03  4.53253866e+03  2.14e-06 5.16e-04  3.23e-03     9s
  81   5.49958149e+03  4.57279012e+03  1.93e-06 4.78e-04  2.91e-03     9s
  82   5.36616568e+03  4.65841332e+03  1.52e-06 3.92e-04  2.22e-03     9s
  83   5.21078073e+03  4.74582624e+03  1.01e-06 2.44e-04  1.46e-03     9s
  84   5.09650538e+03  4.77319676e+03  6.28e-07 2.03e-04  1.02e-03     9s
  85   5.05681884e+03  4.81956832e+03  4.93e-07 1.26e-04  7.45e-04     9s
  86   5.03009108e+03  4.84343571e+03  4.05e-07 8.77e-05  5.86e-04     9s
  87   4.99826624e+03  4.85840455e+03  2.99e-07 6.63e-05  4.39e-04     9s
  88   4.97437405e+03  4.86827018e+03  2.22e-07 6.17e-05  3.33e-04     9s
  89   4.94291209e+03  4.88209547e+03  1.22e-07 3.23e-05  1.91e-04     9s
  90   4.92454695e+03  4.89082586e+03  6.38e-08 2.31e-05  1.06e-04     9s
  91   4.92454695e+03  4.89082586e+03  6.38e-08 2.31e-05  1.06e-04    10s
  92   4.92454695e+03  4.89082586e+03  6.38e-08 2.31e-05  1.06e-04    10s
  93   4.92454695e+03  4.89082586e+03  6.38e-08 2.31e-05  1.06e-04    10s
  94   4.92454695e+03  4.89082586e+03  6.38e-08 2.31e-05  1.06e-04    10s
  95   4.92454695e+03  4.89082586e+03  6.38e-08 2.31e-05  1.06e-04    10s
  96   4.92454695e+03  4.89082586e+03  6.38e-08 2.31e-05  1.06e-04    10s
  97   4.92454695e+03  4.89082586e+03  6.38e-08 2.31e-05  1.06e-04    10s
  98   4.92454695e+03  4.89082586e+03  6.38e-08 2.31e-05  1.06e-04    10s
  99   4.92454695e+03  4.89082586e+03  6.38e-08 2.31e-05  1.06e-04    10s
 100   4.92454695e+03  4.89082586e+03  6.38e-08 2.31e-05  1.06e-04    10s

Barrier performed 100 iterations in 10.34 seconds (23.73 work units)
Sub-optimal termination - objective 4.92454695e+03


Root crossover log...

   18409 DPushes remaining with DInf 0.0000000e+00                10s
       0 DPushes remaining with DInf 0.0000000e+00                10s

  106944 PPushes remaining with PInf 8.9416361e-02                10s
Concurrent spin time: 0.73s

Solved with dual simplex

Root simplex log...

Iteration    Objective       Primal Inf.    Dual Inf.      Time
   44742    4.9034346e+03   0.000000e+00   0.000000e+00     12s

Use crossover to convert LP symmetric solution to basic solution...

Root crossover log...

    5655 DPushes remaining with DInf 0.0000000e+00                12s
       0 DPushes remaining with DInf 0.0000000e+00                12s

     561 PPushes remaining with PInf 0.0000000e+00                12s
       0 PPushes remaining with PInf 0.0000000e+00                12s

  Push phase complete: Pinf 0.0000000e+00, Dinf 2.1038033e+02     12s


Root simplex log...

Iteration    Objective       Primal Inf.    Dual Inf.      Time
   49301    4.9034346e+03   0.000000e+00   2.103803e+02     12s
   50029    4.9034346e+03   0.000000e+00   0.000000e+00     13s
   50029    4.9034346e+03   0.000000e+00   0.000000e+00     13s

Root relaxation: objective 4.903435e+03, 50029 iterations, 9.47 seconds (21.10 work units)
Total elapsed time = 12.63s (DegenMoves)

    Nodes    |    Current Node    |     Objective Bounds      |     Work
 Expl Unexpl |  Obj  Depth IntInf | Incumbent    BestBd   Gap | It/Node Time

     0     0 4903.43460    0 1194          - 4903.43460      -     -   13s
     0     0 4904.00441    0 1199          - 4904.00441      -     -   14s
     0     0 4904.46155    0 1216          - 4904.46155      -     -   14s
     0     0 4904.46155    0 1212          - 4904.46155      -     -   16s
     0     0 4904.88732    0 1253          - 4904.88732      -     -   17s
     0     0 4904.96146    0 1254          - 4904.96146      -     -   17s
     0     0 4904.97072    0 1248          - 4904.97072      -     -   17s
H    0     0                    28603.000000 4904.97072  82.9%     -   21s
     0     0 4936.71765    0 1461 28603.0000 4936.71765  82.7%     -   28s
     0     0 4937.11262    0 1462 28603.0000 4937.11262  82.7%     -   29s
     0     0 4937.12519    0 1459 28603.0000 4937.12519  82.7%     -   30s
H    0     0                    24693.000000 4937.15841  80.0%     -   30s
H    0     0                    24455.000000 4937.15841  79.8%     -   30s
H    0     0                    24200.000000 4937.15841  79.6%     -   30s
H    0     0                    23719.000000 4937.15841  79.2%     -   31s
H    0     0                    21198.000000 4937.15841  76.7%     -   31s
H    0     0                    20254.000000 4937.15841  75.6%     -   31s
H    0     0                    17854.000000 4937.15841  72.3%     -   31s
H    0     0                    17437.000000 4937.15841  71.7%     -   31s
H    0     0                    16248.000000 4937.15841  69.6%     -   31s
H    0     0                    15962.000000 4937.15841  69.1%     -   31s
H    0     0                    15930.000000 4937.15841  69.0%     -   31s
H    0     0                    15863.000000 4937.15841  68.9%     -   31s
H    0     0                    15852.000000 4937.15841  68.9%     -   31s
H    0     0                    15826.000000 4937.15841  68.8%     -   31s
H    0     0                    15800.000000 4937.15841  68.8%     -   31s
H    0     0                    15400.000000 4937.15841  67.9%     -   31s
H    0     0                    15298.000000 4937.15841  67.7%     -   31s
H    0     0                    15138.000000 4937.15841  67.4%     -   31s
H    0     0                    15114.000000 4937.15841  67.3%     -   31s
H    0     0                    15112.000000 4937.15841  67.3%     -   31s
H    0     0                    15023.000000 4937.15841  67.1%     -   31s
H    0     0                    15021.000000 4937.15841  67.1%     -   31s
H    0     0                    14968.000000 4937.15841  67.0%     -   31s
     0     0 4978.54872    0 1806 14968.0000 4978.54872  66.7%     -   36s
     0     0 4978.64084    0 1793 14968.0000 4978.64084  66.7%     -   37s
     0     0 4979.17573    0 1811 14968.0000 4979.17573  66.7%     -   37s
     0     0 4980.09786    0 1906 14968.0000 4980.09786  66.7%     -   38s
     0     0 4980.09809    0 1906 14968.0000 4980.09809  66.7%     -   38s
     0     0 4980.14300    0 1924 14968.0000 4980.14300  66.7%     -   38s
     0     0 4980.16437    0 1937 14968.0000 4980.16437  66.7%     -   38s
     0     0 4980.16869    0 1920 14968.0000 4980.16869  66.7%     -   38s
     0     0 4980.16869    0 1920 14968.0000 4980.16869  66.7%     -   39s
     0     0 5031.52398    0 1880 14968.0000 5031.52398  66.4%     -   46s
     0     0 5032.00085    0 1896 14968.0000 5032.00085  66.4%     -   47s
     0     0 5032.59745    0 1914 14968.0000 5032.59745  66.4%     -   47s
     0     0 5032.70253    0 1903 14968.0000 5032.70253  66.4%     -   48s
     0     0 5032.70842    0 1908 14968.0000 5032.70842  66.4%     -   48s
     0     0 5032.73901    0 1893 14968.0000 5032.73901  66.4%     -   48s
     0     0 5032.73901    0 1892 14968.0000 5032.73901  66.4%     -   48s
     0     0 5032.76590    0 1919 14968.0000 5032.76590  66.4%     -   48s
     0     0 5032.76924    0 1912 14968.0000 5032.76924  66.4%     -   49s
     0     0 5032.77053    0 1908 14968.0000 5032.77053  66.4%     -   49s
     0     0 5032.77079    0 1910 14968.0000 5032.77079  66.4%     -   49s
H    0     0                    14811.000000 5033.44197  66.0%     -   49s
H    0     0                    14789.000000 5033.44197  66.0%     -   49s
H    0     0                    14348.000000 5033.44197  64.9%     -   50s
H    0     0                    14344.000000 5033.44197  64.9%     -   50s
H    0     0                    13361.000000 5033.44197  62.3%     -   50s
H    0     0                    13203.000000 5033.44197  61.9%     -   50s
H    0     0                    13087.000000 5033.44197  61.5%     -   50s
H    0     0                    12942.000000 5033.44197  61.1%     -   51s
H    0     0                    12784.000000 5033.44197  60.6%     -   51s
H    0     0                    12762.000000 5033.44197  60.6%     -   51s
H    0     0                    12677.000000 5033.44197  60.3%     -   51s
H    0     0                    12597.000000 5033.44197  60.0%     -   51s
H    0     0                    12572.000000 5033.44197  60.0%     -   51s
H    0     0                    12527.000000 5033.44197  59.8%     -   51s
H    0     0                    12525.000000 5033.44197  59.8%     -   51s
H    0     0                    12519.000000 5033.44197  59.8%     -   51s
H    0     0                    12429.000000 5033.44197  59.5%     -   52s
H    0     0                    12277.000000 5033.44197  59.0%     -   52s
H    0     0                    12250.000000 5033.44197  58.9%     -   52s
H    0     0                    12245.000000 5033.44197  58.9%     -   52s
H    0     0                    12195.000000 5033.44197  58.7%     -   52s
H    0     0                    12128.000000 5033.44197  58.5%     -   52s
H    0     0                    12122.000000 5033.44197  58.5%     -   52s
H    0     0                    12115.000000 5033.44197  58.5%     -   52s
H    0     0                    12109.000000 5033.44197  58.4%     -   52s
H    0     0                    11959.000000 5033.44197  57.9%     -   53s
H    0     0                    11943.000000 5033.44197  57.9%     -   53s
H    0     0                    11826.000000 5033.44197  57.4%     -   54s
H    0     0                    11791.000000 5033.44197  57.3%     -   54s
H    0     0                    11786.000000 5033.44197  57.3%     -   54s
H    0     0                    11743.000000 5033.44197  57.1%     -   55s
H    0     0                    11739.000000 5033.44197  57.1%     -   55s
H    0     0                    11564.000000 5033.44197  56.5%     -   55s
H    0     0                    11561.000000 5033.44197  56.5%     -   55s
H    0     0                    11548.000000 5033.44197  56.4%     -   55s
     0     0 5041.22533    0 2020 11548.0000 5041.22533  56.3%     -   58s
     0     0 5041.79695    0 1873 11548.0000 5041.79695  56.3%     -   59s
     0     0 5042.35186    0 2001 11548.0000 5042.35186  56.3%     -   60s
     0     0 5042.43037    0 2037 11548.0000 5042.43037  56.3%     -   61s
     0     0 5042.46811    0 2029 11548.0000 5042.46811  56.3%     -   61s
     0     0 5042.47997    0 2043 11548.0000 5042.47997  56.3%     -   62s
     0     0 5042.48159    0 2033 11548.0000 5042.48159  56.3%     -   62s
     0     0 5042.48159    0 2033 11548.0000 5042.48159  56.3%     -   62s
     0     0 5042.48181    0 2020 11548.0000 5042.48181  56.3%     -   62s
     0     0 5042.48181    0 2020 11548.0000 5042.48181  56.3%     -   62s
     0     0 5042.48181    0 2020 11548.0000 5042.48181  56.3%     -   62s
     0     0 5043.42639    0 2044 11548.0000 5043.42639  56.3%     -   63s
     0     0 5043.42662    0 2033 11548.0000 5043.42662  56.3%     -   64s
     0     0 5043.42662    0 2033 11548.0000 5043.42662  56.3%     -   64s
     0     0 5043.42662    0 2033 11548.0000 5043.42662  56.3%     -   64s
     0     0 5043.42662    0 2033 11548.0000 5043.42662  56.3%     -   64s
     0     0 5043.42662    0 2033 11548.0000 5043.42662  56.3%     -   64s
     0     0 5043.42662    0 2033 11548.0000 5043.42662  56.3%     -   64s
     0     0 5043.42662    0 2033 11548.0000 5043.42662  56.3%     -   64s
     0     0 5043.42662    0 2033 11548.0000 5043.42662  56.3%     -   64s
     0     0 5043.42662    0 2033 11548.0000 5043.42662  56.3%     -   64s
     0     0 5043.42662    0 2033 11548.0000 5043.42662  56.3%     -   64s
     0     0 5043.47404    0 1897 11548.0000 5043.47404  56.3%     -   65s
     0     0 5043.47404    0 1897 11548.0000 5043.47404  56.3%     -   65s
     0     0 5043.47404    0 1897 11548.0000 5043.47404  56.3%     -   65s
     0     0 5043.47404    0 1897 11548.0000 5043.47404  56.3%     -   65s
     0     0 5043.47404    0 1897 11548.0000 5043.47404  56.3%     -   65s
     0     0 5043.59045    0 2076 11548.0000 5043.59045  56.3%     -   66s
     0     0 5043.74336    0 2108 11548.0000 5043.74336  56.3%     -   66s
     0     0 5043.74790    0 2120 11548.0000 5043.74790  56.3%     -   66s
     0     0 5043.75033    0 2099 11548.0000 5043.75033  56.3%     -   67s
     0     0 5128.74555    0 2246 11548.0000 5128.74555  55.6%     -   86s
     0     0 5144.38994    0 2229 11548.0000 5144.38994  55.5%     -   92s
     0     0 5145.60288    0 2254 11548.0000 5145.60288  55.4%     -   95s
     0     0 5145.95680    0 2308 11548.0000 5145.95680  55.4%     -   96s
     0     0 5145.97596    0 2276 11548.0000 5145.97596  55.4%     -   97s
     0     0 5146.00030    0 2283 11548.0000 5146.00030  55.4%     -   97s
     0     0 5146.00885    0 2273 11548.0000 5146.00885  55.4%     -   97s
     0     0 5146.00885    0 2273 11548.0000 5146.00885  55.4%     -   97s
     0     0 5146.02612    0 2245 11548.0000 5146.02612  55.4%     -   97s
H    0     0                    11456.000000 5146.02891  55.1%     -   98s
H    0     0                    11339.000000 5146.02891  54.6%     -   98s
H    0     0                    11277.000000 5146.02891  54.4%     -   98s
H    0     0                    11248.000000 5146.02891  54.2%     -   98s
H    0     0                    11219.000000 5146.02891  54.1%     -   98s
     0     0 5147.96381    0 2268 11219.0000 5147.96381  54.1%     -  102s
     0     0 5147.97493    0 2240 11219.0000 5147.97493  54.1%     -  102s
     0     0 5148.34483    0 2291 11219.0000 5148.34483  54.1%     -  104s
     0     0 5148.53315    0 2266 11219.0000 5148.53315  54.1%     -  105s
     0     0 5148.55661    0 2285 11219.0000 5148.55661  54.1%     -  106s
     0     0 5154.38803    0 2492 11219.0000 5154.38803  54.1%     -  113s
     0     0 5155.51860    0 2455 11219.0000 5155.51860  54.0%     -  116s
     0     0 5155.95113    0 2440 11219.0000 5155.95113  54.0%     -  117s
     0     0 5156.05577    0 2433 11219.0000 5156.05577  54.0%     -  118s
     0     0 5156.26967    0 2428 11219.0000 5156.26967  54.0%     -  119s
     0     0 5156.50331    0 2469 11219.0000 5156.50331  54.0%     -  120s
     0     0 5156.71394    0 2453 11219.0000 5156.71394  54.0%     -  121s
     0     0 5156.71906    0 2435 11219.0000 5156.71906  54.0%     -  121s
     0     0 5156.71906    0 2435 11219.0000 5156.71906  54.0%     -  121s
     0     0 5158.05507    0 2522 11219.0000 5158.05507  54.0%     -  125s
     0     0 5158.06366    0 2516 11219.0000 5158.06366  54.0%     -  126s
     0     0 5158.06366    0 2520 11219.0000 5158.06366  54.0%     -  126s
     0     0 5158.06366    0 2521 11219.0000 5158.06366  54.0%     -  126s
     0     0 5158.20343    0 2471 11219.0000 5158.20343  54.0%     -  127s
     0     0 5158.23991    0 2488 11219.0000 5158.23991  54.0%     -  128s
     0     0 5158.24632    0 2521 11219.0000 5158.24632  54.0%     -  128s
     0     0 5158.25037    0 2534 11219.0000 5158.25037  54.0%     -  128s
     0     0 5165.16285    0 2480 11219.0000 5165.16285  54.0%     -  139s
     0     0 5165.57287    0 2460 11219.0000 5165.57287  54.0%     -  141s
     0     0 5165.60658    0 2434 11219.0000 5165.60658  54.0%     -  142s
     0     0 5165.60677    0 2418 11219.0000 5165.60677  54.0%     -  142s
H    0     0                    11214.000000 5165.60677  53.9%     -  143s
     0     0 5165.98098    0 2523 11214.0000 5165.98098  53.9%     -  144s
     0     0 5165.98123    0 2480 11214.0000 5165.98123  53.9%     -  145s
     0     0 5166.02550    0 2489 11214.0000 5166.02550  53.9%     -  145s
     0     0 5166.02992    0 2479 11214.0000 5166.02992  53.9%     -  146s
     0     0 5167.08751    0 2581 11214.0000 5167.08751  53.9%     -  150s
H    0     0                    11193.000000 5167.08751  53.8%     -  151s
H    0     0                    11174.000000 5167.08751  53.8%     -  151s
H    0     0                    11038.000000 5167.08751  53.2%     -  151s
H    0     0                    10972.000000 5167.08751  52.9%     -  151s
H    0     0                    10372.000000 5167.08751  50.2%     -  151s
H    0     0                    10319.000000 5167.08751  49.9%     -  151s
     0     0 5167.21151    0 2606 10319.0000 5167.21151  49.9%     -  153s
     0     0 5167.25813    0 2608 10319.0000 5167.25813  49.9%     -  154s
     0     0 5167.26839    0 2614 10319.0000 5167.26839  49.9%     -  155s
     0     0 5167.97629    0 2643 10319.0000 5167.97629  49.9%     -  158s
     0     0 5167.98176    0 2637 10319.0000 5167.98176  49.9%     -  159s
     0     0 5167.98233    0 2645 10319.0000 5167.98233  49.9%     -  159s
     0     0 5167.98241    0 2639 10319.0000 5167.98241  49.9%     -  159s
     0     0 5167.98245    0 2601 10319.0000 5167.98245  49.9%     -  159s
H    0     0                    10303.000000 5167.98396  49.8%     -  160s
H    0     0                    10261.000000 5167.98396  49.6%     -  160s
H    0     0                    10233.000000 5167.98396  49.5%     -  160s
H    0     0                    10223.000000 5167.98396  49.4%     -  160s
H    0     0                    10197.000000 5167.98396  49.3%     -  160s
H    0     0                    10159.000000 5167.98396  49.1%     -  160s
H    0     0                    10104.000000 5167.98396  48.9%     -  160s
     0     0 5168.02309    0 2606 10104.0000 5168.02309  48.9%     -  161s
     0     0 5168.03749    0 2612 10104.0000 5168.03749  48.9%     -  162s
     0     0 5168.51700    0 2695 10104.0000 5168.51700  48.8%     -  164s
H    0     0                    10103.000000 5168.54378  48.8%     -  165s
H    0     0                    10102.000000 5168.54378  48.8%     -  165s
H    0     0                    10066.000000 5168.54378  48.7%     -  165s
H    0     0                    9664.0000000 5168.54378  46.5%     -  165s
H    0     0                    9657.0000000 5168.54378  46.5%     -  165s
H    0     0                    9651.0000000 5168.54378  46.4%     -  166s
     0     0 5168.58706    0 2675 9651.00000 5168.58706  46.4%     -  167s
     0     0 5168.60170    0 2686 9651.00000 5168.60170  46.4%     -  168s
     0     0 5168.60188    0 2689 9651.00000 5168.60188  46.4%     -  168s
     0     0 5168.71800    0 2649 9651.00000 5168.71800  46.4%     -  170s
H    0     0                    9647.0000000 5168.71818  46.4%     -  170s
H    0     0                    9615.0000000 5168.71818  46.2%     -  170s
     0     0 5168.78621    0 2670 9615.00000 5168.78621  46.2%     -  172s
     0     0 5168.78624    0 2664 9615.00000 5168.78624  46.2%     -  172s
     0     0 5168.78946    0 2626 9615.00000 5168.78946  46.2%     -  172s
     0     0 5169.08185    0 2578 9615.00000 5169.08185  46.2%     -  174s
H    0     0                    9608.0000000 5169.08347  46.2%     -  175s
H    0     0                    9607.0000000 5169.08347  46.2%     -  176s
H    0     0                    9598.0000000 5169.08347  46.1%     -  176s
H    0     0                    9597.0000000 5169.08347  46.1%     -  177s
H    0     0                    9592.0000000 5169.08347  46.1%     -  177s
H    0     0                    9586.0000000 5169.08347  46.1%     -  179s
H    0     0                    9525.0000000 5169.08347  45.7%     -  179s
H    0     0                    9505.0000000 5169.08347  45.6%     -  182s
H    0     0                    9492.0000000 5169.08347  45.5%     -  183s
H    0     0                    9465.0000000 5169.08347  45.4%     -  183s
H    0     0                    9453.0000000 5169.08347  45.3%     -  183s
H    0     0                    9450.0000000 5169.08347  45.3%     -  183s
H    0     0                    9442.0000000 5169.08347  45.3%     -  183s
H    0     0                    9429.0000000 5169.08347  45.2%     -  184s
H    0     0                    9400.0000000 5169.08347  45.0%     -  185s
H    0     0                    9398.0000000 5169.08347  45.0%     -  186s
H    0     0                    9396.0000000 5169.08347  45.0%     -  186s
H    0     0                    9395.0000000 5169.08347  45.0%     -  186s
H    0     0                    9377.0000000 5169.08347  44.9%     -  187s
     0     0 5169.09348    0 2592 9377.00000 5169.09348  44.9%     -  188s
     0     0 5169.33782    0 2649 9377.00000 5169.33782  44.9%     -  190s
H    0     0                    9366.0000000 5169.36830  44.8%     -  190s
H    0     0                    9351.0000000 5169.36830  44.7%     -  190s
H    0     0                    9343.0000000 5169.36830  44.7%     -  190s
H    0     0                    9341.0000000 5169.36830  44.7%     -  190s
H    0     0                    9337.0000000 5169.36830  44.6%     -  190s
     0     0 5169.42656    0 2676 9337.00000 5169.42656  44.6%     -  191s
     0     0 5169.54615    0 2668 9337.00000 5169.54615  44.6%     -  193s
     0     0 5169.56725    0 2683 9337.00000 5169.56725  44.6%     -  194s
     0     0 5171.88399    0 2613 9337.00000 5171.88399  44.6%     -  199s
     0     0 5171.88463    0 2602 9337.00000 5171.88463  44.6%     -  199s
     0     0 5171.90141    0 2621 9337.00000 5171.90141  44.6%     -  200s
     0     0 5172.24474    0 2635 9337.00000 5172.24474  44.6%     -  202s
     0     0 5172.54028    0 2638 9337.00000 5172.54028  44.6%     -  204s
     0     0 5172.61580    0 2641 9337.00000 5172.61580  44.6%     -  205s
     0     0 5172.62940    0 2641 9337.00000 5172.62940  44.6%     -  205s
     0     0 5172.64855    0 2622 9337.00000 5172.64855  44.6%     -  205s
     0     0 5172.64923    0 2613 9337.00000 5172.64923  44.6%     -  205s
H    0     0                    9311.0000000 5172.99026  44.4%     -  206s
     0     0 5172.99026    0 2652 9311.00000 5172.99026  44.4%     -  207s
     0     0 5172.99026    0 2614 9311.00000 5172.99026  44.4%     -  208s
     0     0 5172.99026    0 2636 9311.00000 5172.99026  44.4%     -  209s
     0     0 5172.99026    0 2655 9311.00000 5172.99026  44.4%     -  210s
     0     0 5172.99026    0 2645 9311.00000 5172.99026  44.4%     -  210s
     0     0 5172.99026    0 2626 9311.00000 5172.99026  44.4%     -  211s
     0     0 5172.99026    0 2691 9311.00000 5172.99026  44.4%     -  213s
     0     0 5172.99026    0 2642 9311.00000 5172.99026  44.4%     -  213s
     0     0 5172.99026    0 2377 9311.00000 5172.99026  44.4%     -  215s
     0     2 5175.77352    0 2332 9311.00000 5175.77352  44.4%     -  221s
     3     8 5175.77352    2 2413 9311.00000 5175.77352  44.4%  1510  229s
     7    12 5207.13689    3 2701 9311.00000 5175.77352  44.4%  3586  242s
    11    13 5199.01881    4 2529 9311.00000 5175.77352  44.4%  4662  254s
    12    21 5180.28751    3 2560 9311.00000 5175.77352  44.4%  4756  279s
    20    32 5182.50668    4 2534 9311.00000 5180.28831  44.4%  5007  293s
    33    39 5191.48018    5 2551 9311.00000 5180.28831  44.4%  4487  304s
H   34    39                    9106.0000000 5180.28831  43.1%  4355  305s
    40    45 5187.51737    6 2546 9106.00000 5180.28831  43.1%  4377  342s
    46    60 5197.87138    7 2532 9106.00000 5180.28831  43.1%  4441  357s
    61    70 5201.14141    8 2526 9106.00000 5180.28831  43.1%  4177  369s
H   68    70                    8937.0000000 5180.28831  42.0%  4017  369s
    71    77 5264.82765    9 2507 8937.00000 5180.28831  42.0%  4045  382s
H   72    77                    8903.0000000 5180.28831  41.8%  3989  382s
H   74    77                    8899.0000000 5180.28831  41.8%  3966  382s
H   76    77                    8893.0000000 5180.28831  41.7%  3986  382s
    79    87 5267.17244   10 2511 8893.00000 5180.28831  41.7%  3982  395s
    89   101 5347.59234   11 2554 8893.00000 5180.28831  41.7%  3976  408s
   105   106 5269.10452   17 2323 8893.00000 5180.28831  41.7%  3807  421s
H  106   106                    8834.0000000 5180.28831  41.4%  3771  421s
   110   123 5285.45125   18 2349 8834.00000 5180.28831  41.4%  3748  433s
   127   137 5286.39228   10 2479 8834.00000 5180.28831  41.4%  3515  447s
H  141   147                    8825.0000000 5180.28831  41.3%  3483  459s
H  141   147                    8783.0000000 5180.28831  41.0%  3483  459s
H  143   147                    8752.0000000 5180.28831  40.8%  3475  459s
   151   164 5319.76213   13 2435 8752.00000 5180.28831  40.8%  3492  471s
   168   177 5422.41835   26 2425 8752.00000 5180.28831  40.8%  3358  483s
   183   186 5336.30557   14 2441 8752.00000 5180.28831  40.8%  3334  494s
H  184   186                    8739.0000000 5180.28831  40.7%  3316  494s
H  184   186                    8697.0000000 5180.28831  40.4%  3316  494s
H  187   186                    8682.0000000 5180.28831  40.3%  3291  494s
   192   198 5338.98712   15 2389 8682.00000 5180.28831  40.3%  3310  506s
   204   210 5340.90078   16 2389 8682.00000 5180.28831  40.3%  3222  518s
H  216   222                    8679.0000000 5180.28831  40.3%  3190  530s
H  220   222                    8676.0000000 5180.28831  40.3%  3195  530s
H  221   222                    8674.0000000 5180.28831  40.3%  3194  530s
   228   234 5342.01248   19 2353 8674.00000 5180.28831  40.3%  3177  543s
   240   258 5363.64191   20 2352 8674.00000 5180.28831  40.3%  3146  555s
H  264   266                    8661.0000000 5180.28831  40.2%  3030  566s
H  266   266                    8607.0000000 5180.28831  39.8%  3018  566s
   272   296 5366.13435   22 2311 8607.00000 5180.28831  39.8%  3009  580s
H  302   304                    8597.0000000 5180.28831  39.7%  2866  591s
H  306   304                    8587.0000000 5180.28831  39.7%  2863  591s
   310   310 5369.01790   27 2347 8587.00000 5180.28831  39.7%  2862  600s

Cutting planes:
  Learned: 19
  Gomory: 3
  Cover: 1449
  Implied bound: 972
  Clique: 866
  MIR: 1404
  StrongCG: 495
  Flow cover: 7
  GUB cover: 567
  Zero half: 111
  Mod-K: 26
  Network: 2
  RLT: 74
  Relax-and-lift: 236
  BQP: 8
  PSD: 6

Explored 316 nodes (1090203 simplex iterations) in 600.13 seconds (2196.76 work units)
Thread count was 8 (of 12 available processors)

Solution count 10: 8587 8597 8607 ... 8739

Time limit reached
Best objective 8.587000000000e+03, best bound 5.181000000000e+03, gap 39.6646%
